(declare-fun x1 () Real)
(declare-fun x2 () Real)
(declare-fun x3 () Real)
(declare-fun x4 () Real)
(declare-fun x5 () Real)
(assert ( and ( or  (<= (+  (* 1 x1) ) 752) ) ( or  (<= (+  (* 2 x1)  (* 1 x2) ) 1504)  (<= (+  (* 3 x1)  (* 1 x2) ) 2138) ) ( or  (<= (+  (* 2 x1)  (* 1 x2)  (* 1 x3) ) 1504)  (<= (+  (* 3 x1)  (* 1 x2)  (* 1 x3) ) 2138)  (<= (+  (* 3 x1)  (* 2 x2)  (* 1 x3) ) 2256)  (<= (+  (* 4 x1)  (* 2 x2)  (* 1 x3) ) 2453) ) ( or  (<= (+  (* 2 x1)  (* 1 x2)  (* 1 x3)  (* 1 x4) ) 1504)  (<= (+  (* 3 x1)  (* 1 x2)  (* 1 x3)  (* 1 x4) ) 2138)  (<= (+  (* 3 x1)  (* 2 x2)  (* 1 x3)  (* 1 x4) ) 2256)  (<= (+  (* 4 x1)  (* 2 x2)  (* 1 x3)  (* 1 x4) ) 2453)  (<= (+  (* 5 x1)  (* 2 x2)  (* 2 x3)  (* 1 x4) ) 3760)  (<= (+  (* 6 x1)  (* 2 x2)  (* 2 x3)  (* 1 x4) ) 4012) ) ( or  (<= (+  (* 2 x1)  (* 1 x2)  (* 1 x3)  (* 1 x4)  (* 1 x5) ) 1504)  (<= (+  (* 3 x1)  (* 1 x2)  (* 1 x3)  (* 1 x4)  (* 1 x5) ) 2138)  (<= (+  (* 3 x1)  (* 2 x2)  (* 1 x3)  (* 1 x4)  (* 1 x5) ) 2256)  (<= (+  (* 4 x1)  (* 2 x2)  (* 1 x3)  (* 1 x4)  (* 1 x5) ) 2453)  (<= (+  (* 5 x1)  (* 2 x2)  (* 2 x3)  (* 1 x4)  (* 1 x5) ) 3760)  (<= (+  (* 6 x1)  (* 2 x2)  (* 2 x3)  (* 1 x4)  (* 1 x5) ) 4012)  (<= (+  (* 6 x1)  (* 2 x2)  (* 2 x3)  (* 2 x4)  (* 1 x5) ) 4276)  (<= (+  (* 6 x1)  (* 3 x2)  (* 2 x3)  (* 2 x4)  (* 1 x5) ) 4512)  (<= (+  (* 7 x1)  (* 3 x2)  (* 2 x3)  (* 2 x4)  (* 1 x5) ) 4788) ) (>= x1 15) (>= x2 42) (>= x3 49) (>= x4 80) (>= x5 95) (<= x1 438) (<= x2 1246) (<= x3 1430) (<= x4 2339) (<= x5 2792) ))
(check-sat)
(exit)
